% File represents an instance of a Composite Structure problem to be solved by a CP framework
% Created on 2025-03-26 10:41:16.708
T = 54;
n = 9;
m = 12;
edges = [(1, 2),
(4, 5),
(7, 8),
(3, 2),
(6, 5),
(9, 8),
(4, 1),
(4, 7),
(5, 2),
(5, 8),
(6, 3),
(6, 9)];
counts = [|4, 18, 4, 22,
|2, 18, 2, 20,
|4, 18, 4, 22,
|4, 22, 4, 24,
|4, 18, 4, 22,
|6, 20, 6, 22,
|4, 20, 4, 22,
|4, 18, 4, 20,
|6, 18, 6, 20|];
